S = 6;
start = [|0,0,0,0,0,0,0,0,0,0,0,0,20,0,0,0,15,0,0,23,0,0,0,0,0,0,0,0,0,0,0,0,0,0,6,0|
0,0,0,0,0,0,0,0,24,0,0,21,0,4,7,0,0,0,6,11,0,0,0,10,0,0,0,31,0,27,0,0,0,0,0,0|
0,0,0,0,0,0,0,0,0,0,8,0,34,30,0,0,29,0,0,0,0,0,0,0,0,0,0,0,23,0,0,0,13,0,0,0|
0,0,0,29,0,0,0,0,0,0,0,0,0,0,21,0,0,0,0,0,15,0,0,0,0,0,0,0,11,0,0,0,1,0,0,0|
0,0,0,0,0,0,0,0,12,0,0,0,0,0,0,0,0,0,30,0,0,36,0,0,0,0,0,0,0,20,0,24,0,0,0,0|
0,0,0,0,18,0,13,0,0,0,0,19,10,0,0,0,0,0,0,0,0,0,0,0,0,0,0,28,0,0,0,0,32,0,0,0|
0,0,3,0,0,0,0,0,0,0,11,0,0,0,0,0,0,0,0,0,0,0,0,0,0,18,0,0,0,0,0,0,0,0,0,0|
0,11,0,0,0,0,0,0,0,2,0,0,0,31,0,34,0,0,0,0,26,0,0,0,0,24,0,0,0,0,0,0,16,0,0,0|
0,0,0,0,0,0,0,0,0,0,0,0,0,19,0,0,0,0,13,0,0,0,0,0,0,0,8,0,10,11,5,0,0,0,1,2|
0,0,0,0,0,24,16,0,15,0,0,0,0,0,0,0,0,0,0,0,0,0,6,0,0,0,0,36,0,0,0,0,0,0,0,0|
0,0,0,0,0,0,0,0,0,0,0,0,5,0,0,0,2,0,0,0,0,0,0,0,0,35,0,25,0,0,0,0,36,0,0,0|
0,0,0,0,0,0,34,0,0,0,0,0,17,0,0,0,0,15,0,0,0,0,24,23,0,0,0,0,0,0,0,0,0,12,7,0|
0,9,0,0,0,0,0,0,0,0,0,0,0,0,0,0,0,0,27,0,0,0,0,0,0,0,0,0,0,21,0,0,14,20,0,0|
0,0,0,30,0,0,0,0,25,28,0,0,0,0,0,0,0,0,0,0,16,0,20,0,0,0,0,0,0,9,0,0,0,0,0,0|
0,31,0,0,0,32,36,0,0,0,0,0,0,0,20,0,0,13,0,0,0,0,0,0,0,0,4,0,0,0,9,0,0,0,5,6|
0,0,0,0,0,0,0,17,0,0,0,0,0,0,0,2,0,0,0,12,6,0,10,0,0,0,0,0,0,0,0,0,0,0,0,0|
0,7,0,0,0,0,12,0,11,0,0,0,31,0,0,0,28,0,0,0,30,0,0,33,13,0,0,0,0,0,0,0,0,0,0,18|
0,0,0,0,0,22,14,0,0,0,0,0,0,5,0,0,0,0,0,0,0,0,0,7,27,0,33,0,0,0,0,31,0,32,0,28|
32,0,0,0,0,0,0,0,0,0,25,0,0,0,0,0,0,19,0,0,0,0,0,0,0,0,12,11,0,0,1,0,0,0,9,0|
0,3,7,0,0,4,0,0,0,0,0,0,0,35,0,0,36,0,0,0,0,0,0,0,0,0,0,0,0,0,0,0,0,0,0,0|
0,15,19,0,0,0,0,0,0,22,0,0,0,11,0,0,12,0,0,0,0,0,0,0,0,0,0,30,0,0,0,0,0,0,0,0|
0,0,17,0,0,0,0,0,0,0,0,0,0,0,0,0,10,5,0,0,0,0,0,3,0,0,0,0,0,0,31,0,0,29,0,0|
0,0,0,0,0,0,0,0,0,0,0,0,0,0,0,0,0,0,0,0,0,0,0,0,0,0,0,0,0,0,0,19,0,0,0,0|
0,25,29,0,0,0,0,0,0,0,0,28,0,0,0,0,0,0,0,0,0,0,16,0,0,0,0,9,6,0,0,0,0,0,0,0|
0,18,0,0,0,0,0,20,0,0,0,0,0,2,0,0,0,0,0,0,0,0,0,0,0,0,0,0,0,0,0,0,0,31,0,0|
0,0,0,0,0,0,0,0,0,7,0,11,0,0,29,0,0,28,0,0,0,0,0,36,0,0,0,0,0,0,0,0,0,0,0,0|
0,0,0,0,0,0,0,0,34,0,0,0,0,0,0,0,0,0,0,0,0,0,0,0,4,0,0,2,0,0,0,0,0,0,0,0|
0,0,34,0,0,0,27,0,0,0,0,29,24,0,0,0,19,0,0,15,0,16,0,18,0,0,0,0,0,0,0,0,0,5,2,0|
0,0,0,19,0,23,0,0,0,0,18,0,0,0,0,0,0,0,0,0,0,0,0,6,0,0,0,0,0,0,0,26,33,0,29,0|
0,0,0,0,0,0,0,2,0,0,0,0,36,0,0,33,0,0,26,0,0,0,0,0,0,0,0,0,0,0,0,0,0,0,0,0|
0,0,0,0,10,0,0,0,0,0,0,0,0,0,0,0,33,30,0,0,0,0,0,0,18,13,0,0,0,0,0,20,0,0,0,0|
0,0,18,0,0,0,0,0,0,0,0,0,0,0,0,0,0,6,0,0,0,0,3,0,0,0,0,29,0,0,0,0,0,26,0,0|
0,0,0,11,0,0,0,0,0,0,0,0,0,0,0,0,0,0,0,0,0,0,0,0,0,0,0,0,0,16,0,0,0,0,0,0|
31,0,0,0,0,27,0,34,0,0,26,0,16,0,15,0,0,0,0,0,0,0,0,0,0,3,0,0,0,0,2,0,0,0,0,9|
0,0,0,0,0,0,0,0,0,0,0,0,0,0,0,0,0,0,0,0,0,0,0,0,0,0,30,26,0,0,33,0,0,0,35,0|
0,0,0,0,0,25,0,0,0,0,0,0,14,0,0,0,0,0,0,0,0,0,0,16,0,0,0,10,0,0,0,0,7,0,0,11|];